\ This file has been generated by DOcplex
\ ENCODING=ISO-8859-1
\Problem name: random_problem.lp

Minimize
 obj: - 248 x0 - 124 x1 - 62 x2 - 96 x3 - 48 x4 - 24 x5 + 1232 x6 + 616 x7
      + 308 x8 + 1880 x9 + 940 x10 + 470 x11 + 804 x12 + 402 x13 + 201 x14 + [
      1760 x0^2 + 1760 x0*x1 + 880 x0*x2 - 576 x0*x3 - 288 x0*x4 - 144 x0*x5
      + 2176 x0*x6 + 1088 x0*x7 + 544 x0*x8 + 1536 x0*x9 + 768 x0*x10
      + 384 x0*x11 - 320 x0*x12 - 160 x0*x13 - 80 x0*x14 + 440 x1^2 + 440 x1*x2
      - 288 x1*x3 - 144 x1*x4 - 72 x1*x5 + 1088 x1*x6 + 544 x1*x7 + 272 x1*x8
      + 768 x1*x9 + 384 x1*x10 + 192 x1*x11 - 160 x1*x12 - 80 x1*x13 - 40 x1*x14
      + 110 x2^2 - 144 x2*x3 - 72 x2*x4 - 36 x2*x5 + 544 x2*x6 + 272 x2*x7
      + 136 x2*x8 + 384 x2*x9 + 192 x2*x10 + 96 x2*x11 - 80 x2*x12 - 40 x2*x13
      - 20 x2*x14 + 24896 x3^2 + 24896 x3*x4 + 12448 x3*x5 - 4224 x3*x6
      - 2112 x3*x7 - 1056 x3*x8 + 2560 x3*x9 + 1280 x3*x10 + 640 x3*x11
      - 3648 x3*x12 - 1824 x3*x13 - 912 x3*x14 + 6224 x4^2 + 6224 x4*x5
      - 2112 x4*x6 - 1056 x4*x7 - 528 x4*x8 + 1280 x4*x9 + 640 x4*x10
      + 320 x4*x11 - 1824 x4*x12 - 912 x4*x13 - 456 x4*x14 + 1556 x5^2
      - 1056 x5*x6 - 528 x5*x7 - 264 x5*x8 + 640 x5*x9 + 320 x5*x10 + 160 x5*x11
      - 912 x5*x12 - 456 x5*x13 - 228 x5*x14 + 11072 x6^2 + 11072 x6*x7
      + 5536 x6*x8 + 2368 x6*x9 + 1184 x6*x10 + 592 x6*x11 - 5184 x6*x12
      - 2592 x6*x13 - 1296 x6*x14 + 2768 x7^2 + 2768 x7*x8 + 1184 x7*x9
      + 592 x7*x10 + 296 x7*x11 - 2592 x7*x12 - 1296 x7*x13 - 648 x7*x14
      + 692 x8^2 + 592 x8*x9 + 296 x8*x10 + 148 x8*x11 - 1296 x8*x12
      - 648 x8*x13 - 324 x8*x14 + 10976 x9^2 + 10976 x9*x10 + 5488 x9*x11
      + 2688 x9*x12 + 1344 x9*x13 + 672 x9*x14 + 2744 x10^2 + 2744 x10*x11
      + 1344 x10*x12 + 672 x10*x13 + 336 x10*x14 + 686 x11^2 + 672 x11*x12
      + 336 x11*x13 + 168 x11*x14 + 12544 x12^2 + 12544 x12*x13 + 6272 x12*x14
      + 3136 x13^2 + 3136 x13*x14 + 784 x14^2 ]/2
Subject To
 c0: 4 x0 + 2 x1 + x2 + 4 x3 + 2 x4 + x5 + 4 x6 + 2 x7 + x8 + 4 x9 + 2 x10 + x11
     + 4 x12 + 2 x13 + x14 = 7

Bounds
 0 <= x0 <= 1
 0 <= x1 <= 1
 0 <= x2 <= 1
 0 <= x3 <= 1
 0 <= x4 <= 1
 0 <= x5 <= 1
 0 <= x6 <= 1
 0 <= x7 <= 1
 0 <= x8 <= 1
 0 <= x9 <= 1
 0 <= x10 <= 1
 0 <= x11 <= 1
 0 <= x12 <= 1
 0 <= x13 <= 1
 0 <= x14 <= 1

Binaries
 x0 x1 x2 x3 x4 x5 x6 x7 x8 x9 x10 x11 x12 x13 x14
End
